SAT
-81 -92 4 -23 87 27 83 64 -85 48 61 -35 33 78 -60 16 -71 -89 -95 1 97 -40 -55 11 -67 -75 -15 -17 -76 20 62 74 -37 36 -49 -31 -7 -13 9 -47 30 70 -86 59 -19 32 8 -96 50 -38 43 -10 68 56 12 18 -100 -99 69 -98 25 -79 28 -46 -88 -58 -21 -54 -65 -90 -3 -5 14 -6 -51 82 73 63 -93 26 45 66 -80 44 -42 -84 91 -57 52 77 -34 -29 2 -53 -94 -24 72 39 41 -22 0
